2025-07-08 16:14:51,914 - INFO - CWD: E:\hands_on_opt\Tsp_Tirupathi_2
2025-07-08 16:14:52,127 - INFO - Set parameter Username
2025-07-08 16:14:52,140 - INFO - Set parameter LicenseID to value 2609931
2025-07-08 16:14:52,145 - INFO - Academic license - for non-commercial use only - expires 2026-01-14
2025-07-08 16:14:52,263 - INFO - Read LP format model from file C:\Users\HP\AppData\Local\Temp\tmpxss6v_vv.pyomo.lp
2025-07-08 16:14:52,264 - INFO - Reading time = 0.06 seconds
2025-07-08 16:14:52,264 - INFO - x1: 92 rows, 99 columns, 396 nonzeros
2025-07-08 16:14:52,265 - INFO - Set parameter TimeLimit to value 600
2025-07-08 16:14:52,265 - INFO - Set parameter MIPGap to value 0.0001
2025-07-08 16:14:52,266 - INFO - Gurobi Optimizer version 12.0.1 build v12.0.1rc0 (win64 - Windows 11.0 (22631.2))
2025-07-08 16:14:52,267 - INFO - 
2025-07-08 16:14:52,267 - INFO - CPU model: AMD Ryzen 5 3550H with Radeon Vega Mobile Gfx, instruction set [SSE2|AVX|AVX2]
2025-07-08 16:14:52,268 - INFO - Thread count: 4 physical cores, 8 logical processors, using up to 8 threads
2025-07-08 16:14:52,268 - INFO - 
2025-07-08 16:14:52,268 - INFO - Non-default parameters:
2025-07-08 16:14:52,268 - INFO - TimeLimit  600
2025-07-08 16:14:52,269 - INFO - 
2025-07-08 16:14:52,270 - INFO - Optimize a model with 92 rows, 99 columns and 396 nonzeros
2025-07-08 16:14:52,270 - INFO - Model fingerprint: 0x325f8249
2025-07-08 16:14:52,271 - INFO - Variable types: 9 continuous, 90 integer (90 binary)
2025-07-08 16:14:52,271 - INFO - Coefficient statistics:
2025-07-08 16:14:52,272 - INFO -   Matrix range     [1e+00, 1e+01]
2025-07-08 16:14:52,272 - INFO -   Objective range  [8e+01, 2e+03]
2025-07-08 16:14:52,273 - INFO -   Bounds range     [1e+00, 9e+00]
2025-07-08 16:14:52,273 - INFO -   RHS range        [1e+00, 9e+00]
2025-07-08 16:14:52,279 - INFO - Presolve time: 0.00s
2025-07-08 16:14:52,279 - INFO - Presolved: 92 rows, 99 columns, 795 nonzeros
2025-07-08 16:14:52,281 - INFO - Variable types: 9 continuous, 90 integer (90 binary)
2025-07-08 16:14:52,284 - INFO - Found heuristic solution: objective 9364.8801635
2025-07-08 16:14:52,287 - INFO - 
2025-07-08 16:14:52,287 - INFO - Root relaxation: objective 2.702046e+03, 27 iterations, 0.00 seconds (0.00 work units)
2025-07-08 16:14:52,293 - INFO - 
2025-07-08 16:14:52,293 - INFO -     Nodes    |    Current Node    |     Objective Bounds      |     Work
2025-07-08 16:14:52,294 - INFO -  Expl Unexpl |  Obj  Depth IntInf | Incumbent    BestBd   Gap | It/Node Time
2025-07-08 16:14:52,296 - INFO - 
2025-07-08 16:14:52,296 - INFO -      0     0 2702.04612    0   14 9364.88016 2702.04612  71.1%     -    0s
2025-07-08 16:14:52,305 - INFO - H    0     0                    7606.8177707 2702.04612  64.5%     -    0s
2025-07-08 16:14:52,314 - INFO - H    0     0                    7584.5875311 3516.18005  53.6%     -    0s
2025-07-08 16:14:52,315 - INFO -      0     0 3516.18005    0   14 7584.58753 3516.18005  53.6%     -    0s
2025-07-08 16:14:52,323 - INFO - H    0     0                    7073.6407268 3516.18005  50.3%     -    0s
2025-07-08 16:14:52,324 - INFO -      0     0 3608.87425    0   14 7073.64073 3608.87425  49.0%     -    0s
2025-07-08 16:14:52,333 - INFO -      0     0 3702.76015    0   16 7073.64073 3702.76015  47.7%     -    0s
2025-07-08 16:14:52,336 - INFO - H    0     0                    6908.0000264 3702.76015  46.4%     -    0s
2025-07-08 16:14:52,338 - INFO - H    0     0                    6832.2550975 3702.76015  45.8%     -    0s
2025-07-08 16:14:52,343 - INFO - H    0     0                    6450.2935184 3751.42521  41.8%     -    0s
2025-07-08 16:14:52,344 - INFO -      0     0 3751.42521    0   18 6450.29352 3751.42521  41.8%     -    0s
2025-07-08 16:14:52,346 - INFO -      0     0 3756.61376    0   18 6450.29352 3756.61376  41.8%     -    0s
2025-07-08 16:14:52,364 - INFO -      0     0 3967.99023    0   11 6450.29352 3967.99023  38.5%     -    0s
2025-07-08 16:14:52,368 - INFO -      0     0 3967.99023    0   11 6450.29352 3967.99023  38.5%     -    0s
2025-07-08 16:14:52,376 - INFO -      0     0 3985.32010    0   10 6450.29352 3985.32010  38.2%     -    0s
2025-07-08 16:14:52,381 - INFO - H    0     0                    6399.0782567 3985.32010  37.7%     -    0s
2025-07-08 16:14:52,382 - INFO -      0     0 3985.32010    0   10 6399.07826 3985.32010  37.7%     -    0s
2025-07-08 16:14:52,388 - INFO -      0     0 4026.70019    0   14 6399.07826 4026.70019  37.1%     -    0s
2025-07-08 16:14:52,396 - INFO -      0     0 4026.70019    0   14 6399.07826 4026.70019  37.1%     -    0s
2025-07-08 16:14:52,416 - INFO -      0     2 4042.53124    0   14 6399.07826 4042.53124  36.8%     -    0s
2025-07-08 16:14:52,462 - INFO - H  101    72                    6350.6561441 4126.91597  35.0%   5.0    0s
2025-07-08 16:14:52,487 - INFO - *  168   113              12    6324.5245693 4192.82469  33.7%   4.9    0s
2025-07-08 16:14:52,647 - INFO - *  668   164              11    6177.4967771 4518.15096  26.9%   4.6    0s
2025-07-08 16:14:52,710 - INFO - 
2025-07-08 16:14:52,711 - INFO - Cutting planes:
2025-07-08 16:14:52,711 - INFO -   Learned: 3
2025-07-08 16:14:52,712 - INFO -   Gomory: 2
2025-07-08 16:14:52,712 - INFO -   Implied bound: 15
2025-07-08 16:14:52,713 - INFO -   Clique: 2
2025-07-08 16:14:52,713 - INFO -   MIR: 19
2025-07-08 16:14:52,713 - INFO -   Inf proof: 1
2025-07-08 16:14:52,714 - INFO -   RLT: 2
2025-07-08 16:14:52,715 - INFO -   Relax-and-lift: 5
2025-07-08 16:14:52,715 - INFO - 
2025-07-08 16:14:52,715 - INFO - Explored 1285 nodes (5470 simplex iterations) in 0.45 seconds (0.10 work units)
2025-07-08 16:14:52,716 - INFO - Thread count was 8 (of 8 available processors)
2025-07-08 16:14:52,716 - INFO - 
2025-07-08 16:14:52,716 - INFO - Solution count 10: 6177.5 6324.52 6350.66 ... 7606.82
2025-07-08 16:14:52,716 - INFO - 
2025-07-08 16:14:52,717 - INFO - Optimal solution found (tolerance 1.00e-04)
2025-07-08 16:14:52,718 - INFO - Best objective 6.177496777117e+03, best bound 6.177496777117e+03, gap 0.0000%
2025-07-08 16:14:53,923 - INFO - Plot e:\hands_on_opt\Tsp_Tirupathi_2\output_files\plots\tour_gurobi_10.png
2025-07-08 16:14:54,048 - INFO - Read LP format model from file C:\Users\HP\AppData\Local\Temp\tmpyong47_7.pyomo.lp
2025-07-08 16:14:54,049 - INFO - Reading time = 0.04 seconds
2025-07-08 16:14:54,050 - INFO - x1: 382 rows, 399 columns, 1786 nonzeros
2025-07-08 16:14:54,051 - INFO - Set parameter TimeLimit to value 600
2025-07-08 16:14:54,052 - INFO - Set parameter MIPGap to value 0.0001
2025-07-08 16:14:54,053 - INFO - Gurobi Optimizer version 12.0.1 build v12.0.1rc0 (win64 - Windows 11.0 (22631.2))
2025-07-08 16:14:54,053 - INFO - 
2025-07-08 16:14:54,053 - INFO - CPU model: AMD Ryzen 5 3550H with Radeon Vega Mobile Gfx, instruction set [SSE2|AVX|AVX2]
2025-07-08 16:14:54,054 - INFO - Thread count: 4 physical cores, 8 logical processors, using up to 8 threads
2025-07-08 16:14:54,054 - INFO - 
2025-07-08 16:14:54,055 - INFO - Non-default parameters:
2025-07-08 16:14:54,056 - INFO - TimeLimit  600
2025-07-08 16:14:54,057 - INFO - 
2025-07-08 16:14:54,058 - INFO - Optimize a model with 382 rows, 399 columns and 1786 nonzeros
2025-07-08 16:14:54,059 - INFO - Model fingerprint: 0x465fa032
2025-07-08 16:14:54,059 - INFO - Variable types: 19 continuous, 380 integer (380 binary)
2025-07-08 16:14:54,060 - INFO - Coefficient statistics:
2025-07-08 16:14:54,060 - INFO -   Matrix range     [1e+00, 2e+01]
2025-07-08 16:14:54,060 - INFO -   Objective range  [5e+01, 2e+03]
2025-07-08 16:14:54,061 - INFO -   Bounds range     [1e+00, 2e+01]
2025-07-08 16:14:54,061 - INFO -   RHS range        [1e+00, 2e+01]
2025-07-08 16:14:54,072 - INFO - Presolve time: 0.01s
2025-07-08 16:14:54,073 - INFO - Presolved: 382 rows, 399 columns, 1786 nonzeros
2025-07-08 16:14:54,077 - INFO - Variable types: 19 continuous, 380 integer (380 binary)
2025-07-08 16:14:54,082 - INFO - Found heuristic solution: objective 21692.597093
2025-07-08 16:14:54,088 - INFO - Found heuristic solution: objective 21673.113931
2025-07-08 16:14:54,091 - INFO - 
2025-07-08 16:14:54,092 - INFO - Root relaxation: objective 5.647328e+03, 64 iterations, 0.00 seconds (0.00 work units)
2025-07-08 16:14:54,101 - INFO - 
2025-07-08 16:14:54,102 - INFO -     Nodes    |    Current Node    |     Objective Bounds      |     Work
2025-07-08 16:14:54,103 - INFO -  Expl Unexpl |  Obj  Depth IntInf | Incumbent    BestBd   Gap | It/Node Time
2025-07-08 16:14:54,103 - INFO - 
2025-07-08 16:14:54,104 - INFO -      0     0 5647.32842    0   28 21673.1139 5647.32842  73.9%     -    0s
2025-07-08 16:14:54,112 - INFO - H    0     0                    17310.407751 5647.32842  67.4%     -    0s
2025-07-08 16:14:54,134 - INFO -      0     0 6948.29364    0   32 17310.4078 6948.29364  59.9%     -    0s
2025-07-08 16:14:54,176 - INFO - H    0     0                    13574.100778 6975.64821  48.6%     -    0s
2025-07-08 16:14:54,177 - INFO -      0     0 6975.64821    0   32 13574.1008 6975.64821  48.6%     -    0s
2025-07-08 16:14:54,193 - INFO - H    0     0                    12422.614872 6975.64821  43.8%     -    0s
2025-07-08 16:14:54,199 - INFO - H    0     0                    10986.529218 6975.64821  36.5%     -    0s
2025-07-08 16:14:54,201 - INFO -      0     0 6975.64821    0   34 10986.5292 6975.64821  36.5%     -    0s
2025-07-08 16:14:54,215 - INFO - H    0     0                    9771.7531793 6975.64821  28.6%     -    0s
2025-07-08 16:14:54,217 - INFO - H    0     0                    9122.6196239 6975.64821  23.5%     -    0s
2025-07-08 16:14:54,230 - INFO -      0     0 6975.64821    0   34 9122.61962 6975.64821  23.5%     -    0s
2025-07-08 16:14:54,247 - INFO - H    0     0                    8196.6099296 6975.64821  14.9%     -    0s
2025-07-08 16:14:54,252 - INFO -      0     0 6975.64821    0   34 8196.60993 6975.64821  14.9%     -    0s
2025-07-08 16:14:54,272 - INFO -      0     0 6975.64821    0   34 8196.60993 6975.64821  14.9%     -    0s
2025-07-08 16:14:54,296 - INFO -      0     0 6975.64821    0   34 8196.60993 6975.64821  14.9%     -    0s
2025-07-08 16:14:54,312 - INFO -      0     0 6975.64821    0   34 8196.60993 6975.64821  14.9%     -    0s
2025-07-08 16:14:54,392 - INFO -      0     0 6975.64821    0   29 8196.60993 6975.64821  14.9%     -    0s
2025-07-08 16:14:54,416 - INFO - H    0     0                    8103.2573620 6975.64821  13.9%     -    0s
2025-07-08 16:14:54,425 - INFO -      0     0 6975.64821    0   34 8103.25736 6975.64821  13.9%     -    0s
2025-07-08 16:14:54,439 - INFO -      0     0 6975.64821    0   34 8103.25736 6975.64821  13.9%     -    0s
2025-07-08 16:14:54,534 - INFO -      0     0 6975.64821    0   34 8103.25736 6975.64821  13.9%     -    0s
2025-07-08 16:14:54,567 - INFO -      0     0 6975.64821    0   34 8103.25736 6975.64821  13.9%     -    0s
2025-07-08 16:14:54,610 - INFO -      0     0 6975.64821    0   34 8103.25736 6975.64821  13.9%     -    0s
2025-07-08 16:14:54,622 - INFO -      0     0 6975.64821    0   34 8103.25736 6975.64821  13.9%     -    0s
2025-07-08 16:14:54,648 - INFO - H    0     0                    7962.0790193 6975.64821  12.4%     -    0s
2025-07-08 16:14:54,682 - INFO -      0     2 6975.64821    0   34 7962.07902 6975.64821  12.4%     -    0s
2025-07-08 16:14:59,075 - INFO -   6164  2801 7244.33270   28   14 7962.07902 7198.93318  9.58%   6.3    5s
2025-07-08 16:15:06,419 - INFO -  29346  9346 7527.41813   20   34 7962.07902 7422.53822  6.78%   7.2   12s
2025-07-08 16:15:09,088 - INFO -  29711  9506 7422.53822   35   18 7962.07902 7422.53822  6.78%   7.3   15s
2025-07-08 16:15:14,095 - INFO -  50241  9940 7471.04847   48   16 7962.07902 7422.74226  6.77%   7.2   20s
2025-07-08 16:15:19,125 - INFO -  74650  9196 infeasible   45      7962.07902 7569.83111  4.93%   7.5   25s
2025-07-08 16:15:24,088 - INFO -  94177  4915 infeasible   38      7962.07902 7702.84700  3.26%   7.9   30s
2025-07-08 16:15:26,410 - INFO - 
2025-07-08 16:15:26,410 - INFO - Cutting planes:
2025-07-08 16:15:26,410 - INFO -   Learned: 11
2025-07-08 16:15:26,411 - INFO -   Gomory: 15
2025-07-08 16:15:26,411 - INFO -   Cover: 74
2025-07-08 16:15:26,411 - INFO -   Implied bound: 11
2025-07-08 16:15:26,412 - INFO -   Projected implied bound: 6
2025-07-08 16:15:26,412 - INFO -   MIR: 35
2025-07-08 16:15:26,412 - INFO -   Mixing: 14
2025-07-08 16:15:26,412 - INFO -   Flow cover: 148
2025-07-08 16:15:26,413 - INFO -   Inf proof: 10
2025-07-08 16:15:26,413 - INFO -   Zero half: 2
2025-07-08 16:15:26,413 - INFO -   RLT: 7
2025-07-08 16:15:26,413 - INFO -   Relax-and-lift: 11
2025-07-08 16:15:26,416 - INFO - 
2025-07-08 16:15:26,416 - INFO - Explored 103268 nodes (825874 simplex iterations) in 32.35 seconds (15.05 work units)
2025-07-08 16:15:26,416 - INFO - Thread count was 8 (of 8 available processors)
2025-07-08 16:15:26,417 - INFO - 
2025-07-08 16:15:26,417 - INFO - Solution count 10: 7962.08 7962.08 8103.26 ... 17310.4
2025-07-08 16:15:26,418 - INFO - 
2025-07-08 16:15:26,418 - INFO - Optimal solution found (tolerance 1.00e-04)
2025-07-08 16:15:26,420 - INFO - Best objective 7.962079019334e+03, best bound 7.962079019334e+03, gap 0.0000%
2025-07-08 16:15:27,341 - INFO - Plot e:\hands_on_opt\Tsp_Tirupathi_2\output_files\plots\tour_gurobi_20.png
2025-07-08 16:15:27,546 - INFO - Read LP format model from file C:\Users\HP\AppData\Local\Temp\tmptz9zw7sj.pyomo.lp
2025-07-08 16:15:27,547 - INFO - Reading time = 0.10 seconds
2025-07-08 16:15:27,547 - INFO - x1: 872 rows, 899 columns, 4176 nonzeros
2025-07-08 16:15:27,549 - INFO - Set parameter TimeLimit to value 600
2025-07-08 16:15:27,550 - INFO - Set parameter MIPGap to value 0.0001
2025-07-08 16:15:27,551 - INFO - Gurobi Optimizer version 12.0.1 build v12.0.1rc0 (win64 - Windows 11.0 (22631.2))
2025-07-08 16:15:27,552 - INFO - 
2025-07-08 16:15:27,553 - INFO - CPU model: AMD Ryzen 5 3550H with Radeon Vega Mobile Gfx, instruction set [SSE2|AVX|AVX2]
2025-07-08 16:15:27,554 - INFO - Thread count: 4 physical cores, 8 logical processors, using up to 8 threads
2025-07-08 16:15:27,555 - INFO - 
2025-07-08 16:15:27,556 - INFO - Non-default parameters:
2025-07-08 16:15:27,558 - INFO - TimeLimit  600
2025-07-08 16:15:27,560 - INFO - 
2025-07-08 16:15:27,561 - INFO - Optimize a model with 872 rows, 899 columns and 4176 nonzeros
2025-07-08 16:15:27,562 - INFO - Model fingerprint: 0xd765fec7
2025-07-08 16:15:27,564 - INFO - Variable types: 29 continuous, 870 integer (870 binary)
2025-07-08 16:15:27,565 - INFO - Coefficient statistics:
2025-07-08 16:15:27,566 - INFO -   Matrix range     [1e+00, 3e+01]
2025-07-08 16:15:27,567 - INFO -   Objective range  [2e+01, 3e+03]
2025-07-08 16:15:27,568 - INFO -   Bounds range     [1e+00, 3e+01]
2025-07-08 16:15:27,570 - INFO -   RHS range        [1e+00, 3e+01]
2025-07-08 16:15:27,595 - INFO - Presolve time: 0.02s
2025-07-08 16:15:27,596 - INFO - Presolved: 872 rows, 899 columns, 4176 nonzeros
2025-07-08 16:15:27,604 - INFO - Variable types: 29 continuous, 870 integer (870 binary)
2025-07-08 16:15:27,612 - INFO - Found heuristic solution: objective 33949.600013
2025-07-08 16:15:27,616 - INFO - Found heuristic solution: objective 33099.592779
2025-07-08 16:15:27,621 - INFO - 
2025-07-08 16:15:27,622 - INFO - Root relaxation: objective 6.925470e+03, 92 iterations, 0.01 seconds (0.00 work units)
2025-07-08 16:15:27,643 - INFO - 
2025-07-08 16:15:27,643 - INFO -     Nodes    |    Current Node    |     Objective Bounds      |     Work
2025-07-08 16:15:27,644 - INFO -  Expl Unexpl |  Obj  Depth IntInf | Incumbent    BestBd   Gap | It/Node Time
2025-07-08 16:15:27,645 - INFO - 
2025-07-08 16:15:27,645 - INFO -      0     0 6925.47016    0   52 33099.5928 6925.47016  79.1%     -    0s
2025-07-08 16:15:27,723 - INFO - H    0     0                    31561.014894 6925.47016  78.1%     -    0s
2025-07-08 16:15:27,757 - INFO - H    0     0                    22078.864315 6925.47016  68.6%     -    0s
2025-07-08 16:15:27,778 - INFO -      0     0 8507.98200    0   54 22078.8643 8507.98200  61.5%     -    0s
2025-07-08 16:15:27,791 - INFO -      0     0 8507.98200    0   54 22078.8643 8507.98200  61.5%     -    0s
2025-07-08 16:15:27,826 - INFO - H    0     0                    17661.106392 8507.98200  51.8%     -    0s
2025-07-08 16:15:27,839 - INFO -      0     0 8511.70122    0   58 17661.1064 8511.70122  51.8%     -    0s
2025-07-08 16:15:27,856 - INFO - H    0     0                    16581.722660 8511.70122  48.7%     -    0s
2025-07-08 16:15:27,863 - INFO -      0     0 8512.56773    0   58 16581.7227 8512.56773  48.7%     -    0s
2025-07-08 16:15:27,921 - INFO -      0     0 8512.56773    0   58 16581.7227 8512.56773  48.7%     -    0s
2025-07-08 16:15:27,934 - INFO - H    0     0                    15821.498064 8512.56773  46.2%     -    0s
2025-07-08 16:15:27,939 - INFO -      0     0 8512.56773    0   58 15821.4981 8512.56773  46.2%     -    0s
2025-07-08 16:15:27,997 - INFO - H    0     0                    13682.685786 8512.56773  37.8%     -    0s
2025-07-08 16:15:28,073 - INFO -      0     0 8512.72586    0   58 13682.6858 8512.72586  37.8%     -    0s
2025-07-08 16:15:28,121 - INFO -      0     0 8512.72586    0   58 13682.6858 8512.72586  37.8%     -    0s
2025-07-08 16:15:28,141 - INFO -      0     0 8512.77815    0   56 13682.6858 8512.77815  37.8%     -    0s
2025-07-08 16:15:28,260 - INFO -      0     2 8514.12519    0   56 13682.6858 8514.12519  37.8%     -    0s
2025-07-08 16:15:28,402 - INFO - H   31    36                    13647.114834 8524.85037  37.5%  15.1    0s
2025-07-08 16:15:28,574 - INFO - H   83   100                    12918.389734 8524.85037  34.0%  10.8    1s
2025-07-08 16:15:28,769 - INFO - H  186   192                    12360.730619 8524.85037  31.0%   8.2    1s
2025-07-08 16:15:29,068 - INFO - H  949   778                    11466.347415 8765.38389  23.6%   7.7    1s
2025-07-08 16:15:29,125 - INFO - H 1137   851                    11408.042118 8766.73422  23.2%   7.6    1s
2025-07-08 16:15:29,321 - INFO - H 1139   810                    11129.734464 8766.73422  21.2%   7.6    1s
2025-07-08 16:15:29,713 - INFO - H 1147   774                    10953.332705 9173.02610  16.3%   7.5    2s
2025-07-08 16:15:29,892 - INFO - H 1147   735                    10917.761753 9173.07572  16.0%   7.5    2s
2025-07-08 16:15:29,978 - INFO - H 1148   699                    10822.975481 9209.18667  14.9%   7.5    2s
2025-07-08 16:15:29,979 - INFO - H 1148   664                    10638.888588 9209.18667  13.4%   7.5    2s
2025-07-08 16:15:30,304 - INFO - H 1154   634                    10603.317637 9260.76687  12.7%   7.5    2s
2025-07-08 16:15:31,097 - INFO - H 1162   607                    10510.835531 9265.33479  11.8%   7.4    3s
2025-07-08 16:15:31,232 - INFO - H 1165   580                    10376.904170 9267.22128  10.7%   8.1    3s
2025-07-08 16:15:31,877 - INFO - H 1173   556                    10320.292229 9274.53408  10.1%   8.1    4s
2025-07-08 16:15:32,610 - INFO -   1289   641 9428.71431   38   14 10320.2922 9276.00146  10.1%   9.8    5s
2025-07-08 16:15:37,624 - INFO -   6508  3465 9440.21181   45    6 10320.2922 9388.18729  9.03%   9.7   10s
2025-07-08 16:15:42,613 - INFO -  15226  8705 9584.80575   68   21 10320.2922 9450.24054  8.43%   9.1   15s
2025-07-08 16:15:47,636 - INFO -  30959 14564 9780.16211   64   20 10320.2922 9460.97779  8.33%   8.7   20s
2025-07-08 16:15:54,580 - INFO -  43955 19590 9713.93702   56   56 10320.2922 9496.12803  7.99%   8.5   27s
2025-07-08 16:15:57,665 - INFO -  43975 19603 9550.48530   54   62 10320.2922 9496.12803  7.99%   8.5   30s
2025-07-08 16:16:02,597 - INFO -  44297 19778 9677.49519   76    8 10320.2922 9496.12803  7.99%   8.6   35s
2025-07-08 16:16:07,700 - INFO -  50712 22033 9970.04966   72    8 10320.2922 9496.12803  7.99%   8.8   40s
2025-07-08 16:16:12,806 - INFO -  62708 25715 9680.27998   62   38 10320.2922 9497.83170  7.97%   9.0   45s
2025-07-08 16:16:17,753 - INFO -  73464 28628 9767.77333   77   17 10320.2922 9525.01702  7.71%   9.0   50s
2025-07-08 16:16:22,814 - INFO -  84585 31243 10169.7413   75   16 10320.2922 9547.70669  7.49%   9.2   55s
2025-07-08 16:16:27,707 - INFO -  96308 33304 infeasible   84      10320.2922 9568.34824  7.29%   9.2   60s
2025-07-08 16:16:33,305 - INFO -  104375 39490 9932.56992   68   18 10320.2922 9579.61342  7.18%   9.3   65s
2025-07-08 16:16:37,595 - INFO -  124796 46664 10227.7687  100   14 10320.2922 9606.06685  6.92%   9.3   70s
2025-07-08 16:16:42,711 - INFO -  140617 55011 10116.4287   88    6 10320.2922 9620.98990  6.78%   9.4   75s
2025-07-08 16:16:47,797 - INFO -  155328 62468 10099.0525   72   40 10320.2922 9632.87988  6.66%   9.4   80s
2025-07-08 16:16:52,814 - INFO -  171931 70857 10314.9508   75   10 10320.2922 9645.74012  6.54%   9.4   85s
2025-07-08 16:16:57,802 - INFO -  188064 78922 10050.6592   75   19 10320.2922 9656.19833  6.43%   9.4   90s
2025-07-08 16:17:02,832 - INFO -  203841 86334 infeasible   72      10320.2922 9665.82910  6.34%   9.4   95s
2025-07-08 16:17:07,614 - INFO -  218467 92560     cutoff   83      10320.2922 9675.00447  6.25%   9.5  100s
2025-07-08 16:17:12,855 - INFO -  233778 99327 9850.73194   75   28 10320.2922 9683.37695  6.17%   9.5  105s
2025-07-08 16:17:17,615 - INFO -  247438 104939 10152.3420   68   32 10320.2922 9690.50002  6.10%   9.6  110s
2025-07-08 16:17:22,569 - INFO -  261889 111030 infeasible   83      10320.2922 9697.60329  6.03%   9.6  115s
2025-07-08 16:17:27,781 - INFO -  273383 115325     cutoff   72      10320.2922 9703.08783  5.98%   9.6  120s
2025-07-08 16:17:32,683 - INFO -  286696 120628 10205.6263   76    8 10320.2922 9708.56857  5.93%   9.7  125s
2025-07-08 16:17:37,798 - INFO -  297850 125168 9717.88196   71   29 10320.2922 9713.00494  5.88%   9.7  130s
2025-07-08 16:17:42,812 - INFO -  311535 130565 9889.68838   74    6 10320.2922 9718.86217  5.83%   9.7  135s
2025-07-08 16:17:47,684 - INFO -  324279 135106 10211.6950   95    6 10320.2922 9723.74282  5.78%   9.7  140s
2025-07-08 16:17:48,420 - INFO - H325106 135278                    10320.291441 9724.03605  5.78%   9.7  140s
2025-07-08 16:17:52,628 - INFO -  335486 139303 10319.4518   85   18 10320.2914 9728.16158  5.74%   9.8  145s
2025-07-08 16:17:57,786 - INFO -  347959 144102 9966.29289   68   28 10320.2914 9732.65675  5.69%   9.8  150s
2025-07-08 16:18:02,627 - INFO -  361070 149069 9761.72525   68    6 10320.2914 9737.48045  5.65%   9.8  155s
2025-07-08 16:18:07,701 - INFO -  376492 154669 10040.4263   77   11 10320.2914 9742.32351  5.60%   9.8  160s
2025-07-08 16:18:12,638 - INFO -  391066 160044 10231.5970   75    6 10320.2914 9747.35438  5.55%   9.8  165s
2025-07-08 16:18:17,571 - INFO -  404490 164952     cutoff   91      10320.2914 9751.74267  5.51%   9.8  170s
2025-07-08 16:18:22,594 - INFO -  417058 168918 10201.5397   88   10 10320.2914 9756.11904  5.47%   9.9  175s
2025-07-08 16:18:27,794 - INFO -  432173 174206 infeasible   81      10320.2914 9760.96545  5.42%   9.9  180s
2025-07-08 16:18:32,770 - INFO -  445693 178724 infeasible   74      10320.2914 9765.12123  5.38%   9.9  185s
2025-07-08 16:18:37,634 - INFO -  459102 182762     cutoff   86      10320.2914 9768.98746  5.34%   9.9  190s
2025-07-08 16:18:42,724 - INFO -  472372 186626 10000.6194   76    8 10320.2914 9772.62434  5.31%  10.0  195s
2025-07-08 16:18:47,730 - INFO -  486009 191015 9955.05606   84   12 10320.2914 9776.69709  5.27%  10.0  200s
2025-07-08 16:18:52,819 - INFO -  497834 194577 10095.7755   77   19 10320.2914 9780.37548  5.23%  10.0  205s
2025-07-08 16:18:57,857 - INFO -  511971 198672     cutoff   86      10320.2914 9784.28897  5.19%  10.0  210s
2025-07-08 16:19:02,675 - INFO -  524654 202118 10019.1466   84    6 10320.2914 9787.54679  5.16%  10.1  215s
2025-07-08 16:19:07,577 - INFO -  536991 205598     cutoff   80      10320.2914 9790.69698  5.13%  10.1  220s
2025-07-08 16:19:12,766 - INFO -  551563 209676 9842.62961   76   19 10320.2914 9794.32034  5.10%  10.1  225s
2025-07-08 16:19:17,814 - INFO -  563157 213117 infeasible   84      10320.2914 9797.09763  5.07%  10.1  230s
2025-07-08 16:19:22,757 - INFO -  575094 216519 9963.39894   83   24 10320.2914 9800.07453  5.04%  10.1  235s
